c File: data_files/evolved_graphs/g7941.col
c
c Auto generated graph
c
p edge 100 44
e 1 62
e 2 45
e 3 55
e 4 53
e 5 59
e 6 82
e 7 99
e 8 46
e 9 14
e 10 100
e 11 44
e 12 63
e 13 50
e 14 43
e 15 34
e 16 25
e 17 29
e 18 39
e 19 21
e 20 27
e 21 68
e 22 52
e 23 76
e 24 26
e 29 60
e 30 54
e 31 67
e 32 83
e 33 37
e 36 72
e 38 40
e 49 51
e 57 58
e 70 78
e 71 80
e 73 98
e 74 96
e 77 81
e 79 84
e 79 95
e 87 89
e 88 94
e 90 92
e 91 97
